
Gurobi 10.0.1 (win64) logging started Sat Jun 10 18:09:32 2023

Set parameter LogFile to value "results/log/Fattahi_setup_05_modified_deadline.log"
Gurobi Optimizer version 10.0.1 build v10.0.1rc0 (win64)

CPU model: AMD Ryzen 7 3700X 8-Core Processor, instruction set [SSE2|AVX|AVX2]
Thread count: 8 physical cores, 16 logical processors, using up to 16 threads

Optimize a model with 112 rows, 73 columns and 413 nonzeros
Model fingerprint: 0x065a6367
Variable types: 0 continuous, 73 integer (60 binary)
Coefficient statistics:
  Matrix range     [1e+00, 7e+04]
  Objective range  [1e+00, 1e+00]
  Bounds range     [1e+00, 1e+00]
  RHS range        [1e+00, 2e+05]
Presolve removed 38 rows and 42 columns
Presolve time: 0.00s
Presolved: 74 rows, 31 columns, 333 nonzeros
Variable types: 0 continuous, 31 integer (18 binary)
Found heuristic solution: objective 311.0000000
Found heuristic solution: objective 309.0000000
Found heuristic solution: objective 307.0000000

Root relaxation: objective 1.410000e+02, 17 iterations, 0.00 seconds (0.00 work units)

    Nodes    |    Current Node    |     Objective Bounds      |     Work
 Expl Unexpl |  Obj  Depth IntInf | Incumbent    BestBd   Gap | It/Node Time

     0     0  141.00000    0    4  307.00000  141.00000  54.1%     -    0s
H    0     0                     225.0000000  141.00000  37.3%     -    0s
H    0     0                     221.0000000  141.00000  36.2%     -    0s
     0     0  153.00000    0   13  221.00000  153.00000  30.8%     -    0s
     0     0  153.00794    0   12  221.00000  153.00794  30.8%     -    0s
     0     0  157.90270    0   13  221.00000  157.90270  28.6%     -    0s
     0     0  163.00000    0   11  221.00000  163.00000  26.2%     -    0s
     0     0  163.00380    0   11  221.00000  163.00380  26.2%     -    0s
     0     0  171.00000    0   15  221.00000  171.00000  22.6%     -    0s
     0     0  173.00000    0   13  221.00000  173.00000  21.7%     -    0s
     0     0  178.00134    0   12  221.00000  178.00134  19.5%     -    0s
     0     0  179.00079    0   11  221.00000  179.00079  19.0%     -    0s
     0     1  179.00079    0   11  221.00000  179.00079  19.0%     -    0s

Cutting planes:
  Learned: 4
  Cover: 1
  Implied bound: 2
  MIR: 8
  Flow cover: 7
  Relax-and-lift: 1

Explored 214 nodes (952 simplex iterations) in 0.04 seconds (0.01 work units)
Thread count was 16 (of 16 available processors)

Solution count 5: 221 225 307 ... 311

Optimal solution found (tolerance 1.00e-04)
Best objective 2.210000000000e+02, best bound 2.210000000000e+02, gap 0.0000%
Warning: variable name "y[job:0, stage:0, machine:1]" has a space
Warning: constraint name "precedence between 1,0 to 0,0 if x_[j,l,h,z,i]=1" has a space
Warning: to let Gurobi read it back, use rlp format
Warning: variable name "y[job:0, stage:0, machine:1]" has a space
Warning: constraint name "precedence between 1,0 to 0,0 if x_[j,l,h,z,i]=1" has a space
Warning: default variable names used to write mps file
Warning: default constraint names used to write mps file
Warning: variable name "y[job:0, stage:0, machine:1]" has a space
Warning: default variable names used to write solution file
